Instance Name : r206
Date : 2022-07-24
Solution
Route 1 : 94 95 92 98 37 42 15 14 44 38 86 16 61 84 17 5 60 96 97 43 100 91 85 93 59 13
Route 2 : 53 6 99 87 57 2 40 58
Route 3 : 28 26 21 73 72 39 67 23 41 22 74 75 56 4 25 55 54 24 80 68 77 12
Route 4 : 27 52 83 45 82 48 47 36 64 11 63 90 62 88 7 19 49 46 8 18 89
Route 5 : 69 1 30 33 71 65 34 78 29 79 3 76 50 81 51 9 35 66 20 32 10 70 31
